glpk/a8.dat
data;

set N := 1 2 3 4 5 6 7 8;

param x := 
1 140
2 148
3 164
4 172
5 156
6 140
7 132
8 124;

param y := 
1 145
2 169
3 169
4 169
5 169
6 169
7 169
8 169;

param r := 
1 0
2 36
3 32
4 30
5 34
6 38
7 40
8 42;

param i := 1;

param c := 100;

end;