instances/a8.oplib
NAME : a8
COMMENT : drilling problem (190)
TYPE : OP
DIMENSION: 8
COST_LIMIT : 100
EDGE_WEIGHT_TYPE : EUC_2D
NODE_COORD_SECTION
1 140 145
2 148 169
3 164 169
4 172 169
5 156 169
6 140 169
7 132 169
8 124 169
NODE_SCORE_SECTION
1 0
2 36
3 32
4 30
5 34
6 38
7 40
8 42
DEPOT_SECTION
1
-1
EOF
